p cnf 77 244
-1 2 -3 0
1 -2 -3 0
-1 -2 3 0
1 2 3 0
-4 5 -6 0
4 -5 -6 0
-4 -5 6 0
4 5 6 0
-8 4 0
-8 -7 0
-4 7 8 0
-9 -5 -10 0
9 5 -10 0
-9 5 10 0
9 -5 10 0
-11 -8 0
-11 10 0
8 -10 11 0
-11 12 -13 0
11 -12 -13 0
-11 -12 13 0
11 12 13 0
15 13 0
15 -14 0
-13 14 -15 0
-16 -6 0
-16 -15 0
6 15 16 0
3 16 -17 0
-3 -16 -17 0
3 -16 17 0
-3 16 17 0
-19 -8 0
-19 -5 0
8 5 19 0
-18 -19 -20 0
18 19 -20 0
-18 19 20 0
18 -19 20 0
10 -20 -21 0
-10 20 -21 0
10 20 21 0
-10 -20 21 0
-7 19 -22 0
7 -19 -22 0
-7 -19 22 0
7 19 22 0
-12 -23 -24 0
12 23 -24 0
-12 23 24 0
12 -23 24 0
26 24 0
26 -25 0
-24 25 -26 0
-22 26 -27 0
22 -26 -27 0
-22 -26 27 0
22 26 27 0
-21 -27 -28 0
21 27 -28 0
-21 27 28 0
21 -27 28 0
29 23 0
29 -9 0
-23 9 -29 0
-30 2 0
-30 29 0
-2 -29 30 0
-32 -18 0
-32 31 0
18 -31 32 0
-20 -32 -33 0
20 32 -33 0
-20 32 33 0
20 -32 33 0
34 13 0
34 10 0
-13 -10 -34 0
34 25 -35 0
-34 -25 -35 0
34 -25 35 0
-34 25 35 0
36 -33 0
36 35 0
33 -35 -36 0
-32 36 -37 0
32 -36 -37 0
-32 -36 37 0
32 36 37 0
38 30 0
38 -37 0
-30 37 -38 0
39 12 0
39 10 0
-12 -10 -39 0
4 12 -40 0
-4 -12 -40 0
4 -12 40 0
-4 12 40 0
41 -7 0
41 -8 0
7 8 -41 0
-40 41 -42 0
40 -41 -42 0
-40 -41 42 0
40 41 42 0
43 -12 0
43 -21 0
12 21 -43 0
-43 -44 -45 0
43 44 -45 0
-43 44 45 0
43 -44 45 0
46 -24 0
46 -4 0
24 4 -46 0
-48 -46 0
-48 47 0
46 -47 48 0
-45 48 -49 0
45 -48 -49 0
-45 -48 49 0
45 48 49 0
50 -42 0
50 -49 0
42 49 -50 0
51 39 0
51 50 0
-39 -50 -51 0
-52 38 0
-52 -51 0
-38 51 52 0
-53 -9 -54 0
53 9 -54 0
-53 9 54 0
53 -9 54 0
55 44 0
55 34 0
-44 -34 -55 0
-56 -54 0
-56 -55 0
54 55 56 0
52 -56 -57 0
-52 56 -57 0
52 56 57 0
-52 -56 57 0
-28 -57 -58 0
28 57 -58 0
-28 57 58 0
28 -57 58 0
59 4 0
59 -14 0
-4 14 -59 0
-60 -26 0
-60 -47 0
26 47 60 0
-61 -60 0
-61 40 0
60 -40 61 0
-27 -61 -62 0
27 61 -62 0
-27 61 62 0
27 -61 62 0
63 -41 -64 0
-63 41 -64 0
63 41 64 0
-63 -41 64 0
-65 -62 0
-65 64 0
62 -64 65 0
-66 59 0
-66 -65 0
-59 65 66 0
67 -10 0
67 29 0
10 -29 -67 0
-67 -29 -68 0
67 29 -68 0
-67 29 68 0
67 -29 68 0
69 44 0
69 36 0
-44 -36 -69 0
-70 43 0
-70 -69 0
-43 69 70 0
-71 -68 0
-71 70 0
68 -70 71 0
18 19 -72 0
-18 -19 -72 0
18 -19 72 0
-18 19 72 0
20 72 -73 0
-20 -72 -73 0
20 -72 73 0
-20 72 73 0
-71 73 -74 0
71 -73 -74 0
-71 -73 74 0
71 73 74 0
75 66 0
75 74 0
-66 -74 -75 0
58 75 -76 0
-58 -75 -76 0
58 -75 76 0
-58 75 76 0
-77 -17 0
-77 76 0
17 -76 77 0
77 9 0
-1 47 -9 2 0
37 42 39 -11 1 29 0
-35 38 -19 -3 -42 0
17 25 -29 39 0
15 -25 -31 0
18 28 -19 -61 0
-38 -27 12 41 -4 0
-21 7 -40 0
6 -71 56 0
-46 -58 60 -49 37 0
16 -45 -56 -58 -3 0
-22 -51 54 67 -45 0
42 72 -26 -19 -17 0
-30 54 -61 -31 0
-36 69 -15 0
-38 23 59 0
-50 -32 34 -9 0
67 74 0
-25 -45 -19 50 13 0
-54 -32 0
-29 -30 -42 0
-66 -6 -60 -22 50 0
-77 -61 -15 -74 19 0
60 52 0
-51 -31 -49 22 -39 0
2 54 -45 49 3 70 0
-63 -64 -68 -67 0
-15 -41 75 46 74 0
13 56 0
-14 -27 21 -23 0
28 22 -48 -67 0
77 0
